\ SCIP STATISTICS
\   Problem name     : SetCover-150-225
\   Variables        : 225 (225 binary, 0 integer, 0 implicit integer, 0 continuous)
\   Constraints      : 150
Minimize
 Obj: +54 x0 +76 x1 +27 x2 +60 x3 +19 x4 +62 x5 +40 x6 +52 x7 +67 x8 +57 x9 +90 x10 +47 x11 +75 x12 +15 x13
      +100 x14 +79 x15 +72 x16 +28 x17 +24 x18 +6 x19 +43 x20 +57 x21 +76 x22 +100 x23 +68 x24 +14 x25
      +46 x26 +87 x27 +33 x28 +26 x29 +78 x30 +57 x31 +18 x32 +19 x33 +95 x34 +75 x35 +62 x36 +46 x37
      +85 x38 +46 x39 +66 x40 +96 x41 +16 x42 +95 x43 +61 x44 +60 x45 +32 x46 +71 x47 +62 x48 +54 x49
      +37 x50 +26 x51 +74 x52 +48 x53 +3 x54 +12 x55 +16 x56 +54 x57 +26 x58 +5 x59 +29 x60 +36 x61 +32 x62
      +76 x63 +17 x64 +97 x65 +98 x66 +51 x67 +38 x68 +41 x69 +81 x70 +83 x71 +66 x72 +32 x73 +65 x74
      +18 x75 +17 x76 +60 x77 +73 x78 +57 x79 +43 x80 +21 x81 +99 x82 +1 x83 +74 x84 +22 x85 +87 x86 +46 x87
      +89 x88 +74 x89 +85 x90 +65 x91 +99 x92 +1 x93 +10 x94 +84 x95 +28 x96 +10 x97 +51 x98 +90 x99 +94 x100
      +47 x101 +91 x102 +91 x103 +17 x104 +82 x105 +15 x106 +51 x107 +58 x108 +23 x109 +98 x110 +91 x111
      +81 x112 +28 x113 +38 x114 +28 x115 +16 x116 +16 x117 +53 x118 +61 x119 +66 x120 +3 x121 +81 x122
      +60 x123 +31 x124 +25 x125 +89 x126 +38 x127 +96 x128 +100 x129 +20 x130 +7 x131 +3 x132 +62 x133
      +4 x134 +97 x135 +51 x136 +32 x137 +90 x138 +97 x139 +31 x140 +67 x141 +47 x142 +21 x143 +76 x144
      +91 x145 +92 x146 +25 x147 +50 x148 +36 x149 +43 x150 +33 x151 +62 x152 +10 x153 +41 x154 +98 x155
      +1 x156 +61 x157 +69 x158 +18 x159 +68 x160 +55 x161 +6 x162 +22 x163 +42 x164 +61 x165 +61 x166
      +89 x167 +87 x168 +48 x169 +70 x170 +36 x171 +89 x172 +23 x173 +67 x174 +79 x175 +73 x176 +97 x177
      +82 x178 +8 x179 +58 x180 +88 x181 +46 x182 +90 x183 +17 x184 +11 x185 +59 x186 +82 x187 +31 x188
      +25 x189 +87 x190 +66 x191 +5 x192 +90 x193 +87 x194 +90 x195 +33 x196 +61 x197 +23 x198 +20 x199
      +61 x200 +69 x201 +51 x202 +81 x203 +51 x204 +52 x205 +97 x206 +57 x207 +1 x208 +90 x209 +32 x210
      +81 x211 +86 x212 +71 x213 +85 x214 +9 x215 +65 x216 +17 x217 +13 x218 +96 x219 +90 x220 +100 x221
      +7 x222 +80 x223 +89 x224
Subject to
 c0: +1 x5 +1 x14 +1 x44 +1 x45 +1 x46 +1 x47 +1 x52 +1 x54 +1 x60 +1 x67 +1 x92 +1 x98 +1 x99 +1 x100
  +1 x104 +1 x123 +1 x148 +1 x177 +1 x202 +1 x210 +1 x212 >= +1
 c1: +1 x1 +1 x18 +1 x36 +1 x44 +1 x53 +1 x58 +1 x74 +1 x110 +1 x114 +1 x116 +1 x121 +1 x135 +1 x147 +1 x153
  +1 x155 +1 x179 +1 x180 +1 x187 +1 x190 +1 x193 +1 x194 +1 x216 +1 x219 +1 x223 >= +1
 c2: +1 x4 +1 x23 +1 x29 +1 x39 +1 x81 +1 x95 +1 x107 +1 x109 +1 x133 +1 x142 +1 x152 +1 x156 +1 x158
  +1 x171 +1 x174 +1 x191 +1 x206 +1 x210 +1 x221 >= +1
 c3: +1 x6 +1 x11 +1 x12 +1 x27 +1 x28 +1 x41 +1 x42 +1 x54 +1 x56 +1 x81 +1 x87 +1 x101 +1 x102 +1 x120
  +1 x124 +1 x126 +1 x127 +1 x129 +1 x141 +1 x142 +1 x158 +1 x175 +1 x183 +1 x184 +1 x199 +1 x205 +1 x206
  +1 x208 +1 x215 +1 x221 >= +1
 c4: +1 x9 +1 x18 +1 x51 +1 x59 +1 x65 +1 x67 +1 x81 +1 x92 +1 x93 +1 x98 +1 x99 +1 x103 +1 x106 +1 x132
  +1 x160 +1 x169 +1 x172 +1 x176 +1 x178 +1 x180 +1 x209 +1 x211 >= +1
 c5: +1 x7 +1 x21 +1 x37 +1 x46 +1 x48 +1 x49 +1 x58 +1 x59 +1 x87 +1 x88 +1 x107 +1 x108 +1 x115 +1 x119
  +1 x126 +1 x132 +1 x147 +1 x162 +1 x163 +1 x169 +1 x172 +1 x200 +1 x215 >= +1
 c6: +1 x8 +1 x39 +1 x41 +1 x47 +1 x50 +1 x59 +1 x60 +1 x63 +1 x68 +1 x89 +1 x100 +1 x112 +1 x115 +1 x118
  +1 x125 +1 x136 +1 x148 +1 x153 +1 x169 +1 x173 +1 x179 +1 x212 +1 x214 +1 x216 >= +1
 c7: +1 x8 +1 x10 +1 x13 +1 x17 +1 x24 +1 x30 +1 x40 +1 x47 +1 x49 +1 x58 +1 x67 +1 x76 +1 x90 +1 x103
  +1 x121 +1 x126 +1 x135 +1 x144 +1 x151 +1 x160 +1 x162 +1 x167 +1 x172 +1 x184 +1 x197 +1 x200 +1 x203
  +1 x208 +1 x209 +1 x223 >= +1
 c8: +1 x1 +1 x11 +1 x18 +1 x29 +1 x45 +1 x51 +1 x57 +1 x62 +1 x67 +1 x115 +1 x117 +1 x118 +1 x120 +1 x128
  +1 x131 +1 x138 +1 x142 +1 x144 +1 x150 +1 x156 +1 x160 +1 x169 +1 x194 +1 x199 +1 x204 +1 x208 +1 x219
  >= +1
 c9: +1 x9 +1 x22 +1 x30 +1 x55 +1 x59 +1 x67 +1 x70 +1 x89 +1 x90 +1 x92 +1 x101 +1 x104 +1 x106 +1 x127
  +1 x130 +1 x138 +1 x139 +1 x148 +1 x178 +1 x183 +1 x193 +1 x195 +1 x197 +1 x210 +1 x217 >= +1
 c10: +1 x9 +1 x16 +1 x44 +1 x57 +1 x64 +1 x69 +1 x78 +1 x84 +1 x87 +1 x104 +1 x105 +1 x111 +1 x124 +1 x126
  +1 x141 +1 x166 +1 x171 +1 x185 +1 x199 +1 x206 +1 x209 >= +1
 c11: +1 x5 +1 x19 +1 x25 +1 x28 +1 x35 +1 x36 +1 x45 +1 x57 +1 x59 +1 x80 +1 x82 +1 x85 +1 x116 +1 x129
  +1 x143 +1 x149 +1 x151 +1 x152 +1 x157 +1 x170 +1 x181 +1 x191 +1 x198 +1 x206 +1 x213 +1 x219 >= +1
 c12: +1 x4 +1 x15 +1 x17 +1 x19 +1 x23 +1 x34 +1 x46 +1 x49 +1 x51 +1 x78 +1 x87 +1 x102 +1 x112 +1 x113
  +1 x124 +1 x135 +1 x141 +1 x146 +1 x151 +1 x156 +1 x158 +1 x179 +1 x190 +1 x202 +1 x205 +1 x209 +1 x215
  >= +1
 c13: +1 x7 +1 x12 +1 x21 +1 x23 +1 x42 +1 x50 +1 x65 +1 x81 +1 x95 +1 x96 +1 x100 +1 x117 +1 x118 +1 x135
  +1 x136 +1 x138 +1 x139 +1 x177 +1 x181 +1 x190 +1 x196 +1 x207 +1 x208 +1 x213 +1 x222 >= +1
 c14: +1 x5 +1 x15 +1 x25 +1 x45 +1 x65 +1 x71 +1 x75 +1 x84 +1 x91 +1 x101 +1 x103 +1 x109 +1 x124 +1 x127
  +1 x131 +1 x149 +1 x171 +1 x174 +1 x179 +1 x186 +1 x217 +1 x221 >= +1
 c15: +1 x4 +1 x47 +1 x61 +1 x64 +1 x98 +1 x114 +1 x116 +1 x119 +1 x147 +1 x153 +1 x161 +1 x162 +1 x170
  +1 x171 +1 x186 +1 x193 +1 x201 +1 x213 +1 x224 >= +1
 c16: +1 x6 +1 x14 +1 x19 +1 x25 +1 x33 +1 x39 +1 x45 +1 x52 +1 x56 +1 x59 +1 x71 +1 x79 +1 x83 +1 x91
  +1 x93 +1 x96 +1 x97 +1 x111 +1 x114 +1 x127 +1 x129 +1 x140 +1 x142 +1 x143 +1 x147 +1 x152 +1 x163
  +1 x167 +1 x174 +1 x176 +1 x178 +1 x180 +1 x190 +1 x193 +1 x206 +1 x214 +1 x215 >= +1
 c17: +1 x8 +1 x11 +1 x18 +1 x25 +1 x36 +1 x37 +1 x39 +1 x43 +1 x49 +1 x54 +1 x89 +1 x95 +1 x97 +1 x103
  +1 x118 +1 x126 +1 x138 +1 x148 +1 x166 +1 x171 +1 x181 +1 x203 +1 x206 +1 x209 >= +1
 c18: +1 x7 +1 x14 +1 x58 +1 x63 +1 x74 +1 x76 +1 x77 +1 x80 +1 x90 +1 x98 +1 x100 +1 x116 +1 x133 +1 x137
  +1 x145 +1 x157 +1 x163 +1 x169 +1 x184 +1 x202 +1 x207 +1 x220 >= +1
 c19: +1 x5 +1 x15 +1 x20 +1 x22 +1 x51 +1 x59 +1 x73 +1 x80 +1 x110 +1 x112 +1 x114 +1 x122 +1 x132 +1 x141
  +1 x171 +1 x185 +1 x188 +1 x194 +1 x214 +1 x220 >= +1
 c20: +1 x6 +1 x10 +1 x11 +1 x13 +1 x16 +1 x17 +1 x19 +1 x29 +1 x49 +1 x66 +1 x67 +1 x76 +1 x81 +1 x94
  +1 x98 +1 x108 +1 x124 +1 x139 +1 x143 +1 x149 +1 x153 +1 x172 +1 x173 +1 x180 +1 x194 +1 x203 +1 x209
  +1 x213 +1 x216 >= +1
 c21: +1 x1 +1 x11 +1 x12 +1 x17 +1 x27 +1 x30 +1 x42 +1 x57 +1 x62 +1 x81 +1 x83 +1 x85 +1 x101 +1 x103
  +1 x123 +1 x138 +1 x161 +1 x169 +1 x176 +1 x180 +1 x187 +1 x194 +1 x203 +1 x220 >= +1
 c22: +1 x8 +1 x16 +1 x28 +1 x34 +1 x36 +1 x45 +1 x49 +1 x50 +1 x65 +1 x68 +1 x72 +1 x74 +1 x85 +1 x92
  +1 x98 +1 x105 +1 x110 +1 x118 +1 x127 +1 x148 +1 x153 +1 x157 +1 x174 +1 x182 +1 x206 >= +1
 c23: +1 x4 +1 x10 +1 x20 +1 x39 +1 x51 +1 x67 +1 x77 +1 x86 +1 x87 +1 x95 +1 x97 +1 x98 +1 x111 +1 x114
  +1 x137 +1 x140 +1 x156 +1 x157 +1 x162 +1 x171 +1 x177 +1 x178 +1 x182 +1 x184 +1 x187 +1 x196 +1 x199
  >= +1
 c24: +1 x7 +1 x12 +1 x20 +1 x32 +1 x39 +1 x68 +1 x72 +1 x74 +1 x76 +1 x105 +1 x107 +1 x143 +1 x146 +1 x147
  +1 x149 +1 x153 +1 x154 +1 x179 +1 x192 +1 x200 +1 x206 +1 x214 >= +1
 c25: +1 x7 +1 x12 +1 x31 +1 x40 +1 x110 +1 x113 +1 x126 +1 x127 +1 x128 +1 x130 +1 x157 +1 x179 +1 x186
  +1 x192 +1 x194 >= +1
 c26: +1 x0 +1 x11 +1 x21 +1 x49 +1 x51 +1 x53 +1 x56 +1 x71 +1 x78 +1 x80 +1 x83 +1 x85 +1 x90 +1 x96
  +1 x117 +1 x123 +1 x138 +1 x139 +1 x177 +1 x180 +1 x186 +1 x191 +1 x198 +1 x210 +1 x224 >= +1
 c27: +1 x3 +1 x14 +1 x30 +1 x41 +1 x51 +1 x67 +1 x101 +1 x113 +1 x124 +1 x143 +1 x149 +1 x157 +1 x224
  >= +1
 c28: +1 x6 +1 x29 +1 x38 +1 x41 +1 x55 +1 x74 +1 x93 +1 x97 +1 x98 +1 x101 +1 x123 +1 x136 +1 x137 +1 x145
  +1 x150 +1 x152 +1 x156 +1 x169 +1 x172 +1 x182 +1 x196 +1 x206 +1 x207 >= +1
 c29: +1 x7 +1 x11 +1 x14 +1 x27 +1 x47 +1 x57 +1 x65 +1 x67 +1 x75 +1 x90 +1 x102 +1 x107 +1 x111 +1 x113
  +1 x115 +1 x129 +1 x139 +1 x150 +1 x151 +1 x157 +1 x165 +1 x176 +1 x178 +1 x184 +1 x211 +1 x217 +1 x222
  >= +1
 c30: +1 x1 +1 x16 +1 x22 +1 x34 +1 x47 +1 x57 +1 x63 +1 x74 +1 x79 +1 x104 +1 x112 +1 x121 +1 x133 +1 x136
  +1 x138 +1 x141 +1 x156 +1 x166 +1 x177 +1 x179 +1 x187 +1 x195 +1 x209 +1 x210 >= +1
 c31: +1 x7 +1 x10 +1 x13 +1 x27 +1 x34 +1 x46 +1 x48 +1 x59 +1 x60 +1 x72 +1 x80 +1 x87 +1 x99 +1 x110
  +1 x114 +1 x117 +1 x144 +1 x145 +1 x190 +1 x201 +1 x208 +1 x209 >= +1
 c32: +1 x3 +1 x10 +1 x15 +1 x18 +1 x21 +1 x23 +1 x33 +1 x37 +1 x46 +1 x51 +1 x55 +1 x60 +1 x63 +1 x65
  +1 x85 +1 x149 +1 x158 +1 x168 +1 x170 +1 x178 >= +1
 c33: +1 x8 +1 x14 +1 x19 +1 x39 +1 x52 +1 x58 +1 x87 +1 x92 +1 x132 +1 x138 +1 x148 +1 x157 +1 x161 +1 x163
  +1 x175 +1 x178 +1 x181 +1 x219 >= +1
 c34: +1 x1 +1 x11 +1 x35 +1 x49 +1 x50 +1 x52 +1 x59 +1 x73 +1 x76 +1 x86 +1 x90 +1 x93 +1 x94 +1 x107
  +1 x139 +1 x156 +1 x159 +1 x161 +1 x166 +1 x172 +1 x181 +1 x199 +1 x206 +1 x209 +1 x211 +1 x216 >= +1
 c35: +1 x4 +1 x13 +1 x14 +1 x20 +1 x21 +1 x36 +1 x58 +1 x64 +1 x95 +1 x99 +1 x100 +1 x110 +1 x117 +1 x123
  +1 x126 +1 x135 +1 x151 +1 x164 +1 x197 +1 x200 +1 x203 +1 x212 +1 x215 +1 x217 >= +1
 c36: +1 x0 +1 x18 +1 x27 +1 x41 +1 x45 +1 x57 +1 x60 +1 x67 +1 x102 +1 x106 +1 x120 +1 x127 +1 x131 +1 x147
  +1 x174 +1 x182 +1 x187 +1 x191 +1 x200 >= +1
 c37: +1 x1 +1 x12 +1 x23 +1 x32 +1 x44 +1 x47 +1 x64 +1 x69 +1 x93 +1 x100 +1 x103 +1 x104 +1 x119 +1 x133
  +1 x135 +1 x137 +1 x140 +1 x189 +1 x218 >= +1
 c38: +1 x5 +1 x13 +1 x18 +1 x29 +1 x52 +1 x63 +1 x72 +1 x74 +1 x98 +1 x117 +1 x120 +1 x145 +1 x150 +1 x166
  +1 x175 +1 x180 +1 x183 +1 x184 +1 x187 +1 x203 +1 x211 +1 x215 >= +1
 c39: +1 x7 +1 x13 +1 x15 +1 x47 +1 x58 +1 x60 +1 x72 +1 x79 +1 x84 +1 x94 +1 x95 +1 x108 +1 x148 +1 x167
  +1 x194 +1 x201 +1 x213 +1 x220 +1 x221 >= +1
 c40: +1 x1 +1 x10 +1 x32 +1 x41 +1 x48 +1 x50 +1 x51 +1 x77 +1 x84 +1 x92 +1 x100 +1 x104 +1 x110 +1 x142
  +1 x149 +1 x152 +1 x153 +1 x155 +1 x160 +1 x161 +1 x165 +1 x176 +1 x187 +1 x189 +1 x193 +1 x210 >= +1
 c41: +1 x8 +1 x39 +1 x49 +1 x69 +1 x85 +1 x92 +1 x96 +1 x106 +1 x108 +1 x126 +1 x136 +1 x140 +1 x164
  +1 x172 +1 x180 +1 x189 +1 x210 +1 x216 +1 x221 >= +1
 c42: +1 x8 +1 x27 +1 x34 +1 x35 +1 x36 +1 x37 +1 x45 +1 x51 +1 x52 +1 x69 +1 x82 +1 x98 +1 x103 +1 x108
  +1 x118 +1 x132 +1 x144 +1 x157 +1 x168 +1 x180 +1 x207 +1 x212 +1 x213 +1 x221 >= +1
 c43: +1 x7 +1 x35 +1 x48 +1 x52 +1 x53 +1 x59 +1 x72 +1 x113 +1 x114 +1 x115 +1 x117 +1 x123 +1 x134
  +1 x139 +1 x150 +1 x156 +1 x159 +1 x163 +1 x166 +1 x169 +1 x174 +1 x180 +1 x187 >= +1
 c44: +1 x8 +1 x19 +1 x22 +1 x35 +1 x48 +1 x51 +1 x84 +1 x90 +1 x99 +1 x113 +1 x127 +1 x133 +1 x141 +1 x143
  +1 x152 +1 x161 +1 x170 +1 x182 +1 x187 +1 x193 +1 x194 +1 x203 +1 x205 +1 x214 +1 x222 >= +1
 c45: +1 x1 +1 x18 +1 x47 +1 x53 +1 x54 +1 x81 +1 x85 +1 x87 +1 x132 +1 x143 +1 x150 +1 x160 +1 x165 +1 x178
  +1 x180 >= +1
 c46: +1 x0 +1 x10 +1 x11 +1 x30 +1 x50 +1 x58 +1 x78 +1 x81 +1 x86 +1 x102 +1 x103 +1 x107 +1 x120 +1 x122
  +1 x130 +1 x151 +1 x156 +1 x163 +1 x168 +1 x172 +1 x175 +1 x179 +1 x185 +1 x198 +1 x206 +1 x215 >= +1
 c47: +1 x0 +1 x27 +1 x29 +1 x43 +1 x52 +1 x65 +1 x67 +1 x72 +1 x76 +1 x80 +1 x81 +1 x83 +1 x97 +1 x98
  +1 x102 +1 x146 +1 x160 +1 x162 +1 x167 +1 x173 +1 x178 +1 x189 +1 x194 +1 x198 +1 x219 >= +1
 c48: +1 x3 +1 x12 +1 x31 +1 x36 +1 x41 +1 x50 +1 x56 +1 x87 +1 x92 +1 x108 +1 x109 +1 x112 +1 x138 +1 x145
  +1 x150 +1 x173 +1 x175 +1 x178 +1 x186 +1 x191 +1 x192 +1 x196 +1 x197 +1 x210 >= +1
 c49: +1 x3 +1 x10 +1 x12 +1 x36 +1 x37 +1 x41 +1 x60 +1 x81 +1 x83 +1 x85 +1 x96 +1 x114 +1 x121 +1 x123
  +1 x126 +1 x131 +1 x149 +1 x152 +1 x153 +1 x176 +1 x188 +1 x210 +1 x212 +1 x215 +1 x222 >= +1
 c50: +1 x7 +1 x11 +1 x38 +1 x46 +1 x49 +1 x59 +1 x70 +1 x72 +1 x75 +1 x89 +1 x90 +1 x96 +1 x102 +1 x104
  +1 x108 +1 x110 +1 x111 +1 x117 +1 x124 +1 x128 +1 x140 +1 x149 +1 x153 +1 x158 +1 x167 +1 x176 +1 x184
  +1 x186 +1 x191 +1 x208 +1 x215 >= +1
 c51: +1 x5 +1 x17 +1 x33 +1 x44 +1 x52 +1 x57 +1 x88 +1 x93 +1 x94 +1 x98 +1 x103 +1 x123 +1 x127 +1 x134
  +1 x154 +1 x155 +1 x166 +1 x201 +1 x202 +1 x206 +1 x208 >= +1
 c52: +1 x7 +1 x10 +1 x36 +1 x40 +1 x43 +1 x64 +1 x65 +1 x84 +1 x95 +1 x96 +1 x111 +1 x124 +1 x125 +1 x131
  +1 x136 +1 x140 +1 x141 +1 x146 +1 x161 +1 x168 +1 x199 +1 x204 +1 x217 >= +1
 c53: +1 x9 +1 x29 +1 x33 +1 x43 +1 x45 +1 x48 +1 x50 +1 x75 +1 x77 +1 x82 +1 x92 +1 x103 +1 x125 +1 x139
  +1 x179 +1 x180 +1 x183 +1 x189 +1 x191 +1 x202 +1 x217 >= +1
 c54: +1 x2 +1 x18 +1 x45 +1 x50 +1 x52 +1 x69 +1 x72 +1 x93 +1 x96 +1 x97 +1 x102 +1 x113 +1 x118 +1 x134
  +1 x150 +1 x153 +1 x156 +1 x160 +1 x161 +1 x167 +1 x168 +1 x205 +1 x206 >= +1
 c55: +1 x7 +1 x29 +1 x33 +1 x60 +1 x68 +1 x69 +1 x75 +1 x76 +1 x79 +1 x81 +1 x83 +1 x96 +1 x101 +1 x102
  +1 x118 +1 x121 +1 x126 +1 x132 +1 x144 +1 x148 +1 x151 +1 x153 +1 x171 +1 x181 +1 x223 >= +1
 c56: +1 x9 +1 x21 +1 x28 +1 x38 +1 x39 +1 x49 +1 x53 +1 x64 +1 x76 +1 x107 +1 x111 +1 x128 +1 x141 +1 x167
  +1 x195 +1 x197 +1 x204 +1 x221 +1 x222 >= +1
 c57: +1 x2 +1 x14 +1 x18 +1 x33 +1 x44 +1 x45 +1 x56 +1 x63 +1 x66 +1 x82 +1 x91 +1 x93 +1 x102 +1 x108
  +1 x121 +1 x122 +1 x124 +1 x128 +1 x130 +1 x131 +1 x133 +1 x137 +1 x147 +1 x149 +1 x157 +1 x167 +1 x188
  +1 x214 +1 x221 >= +1
 c58: +1 x9 +1 x26 +1 x38 +1 x57 +1 x69 +1 x70 +1 x75 +1 x86 +1 x98 +1 x108 +1 x110 +1 x113 +1 x129 +1 x131
  +1 x132 +1 x135 +1 x148 +1 x149 +1 x159 +1 x172 +1 x177 +1 x186 +1 x187 +1 x193 +1 x194 +1 x203 +1 x210
  +1 x212 +1 x220 +1 x224 >= +1
 c59: +1 x8 +1 x37 +1 x41 +1 x46 +1 x58 +1 x61 +1 x69 +1 x74 +1 x82 +1 x108 +1 x120 +1 x128 +1 x129 +1 x133
  +1 x138 +1 x151 +1 x163 +1 x166 +1 x167 +1 x172 +1 x177 +1 x185 +1 x186 +1 x203 +1 x208 >= +1
 c60: +1 x0 +1 x25 +1 x35 +1 x43 +1 x66 +1 x98 +1 x104 +1 x110 +1 x121 +1 x124 +1 x136 +1 x156 +1 x162
  +1 x164 +1 x172 +1 x188 +1 x195 +1 x198 +1 x203 +1 x204 +1 x205 >= +1
 c61: +1 x7 +1 x14 +1 x21 +1 x31 +1 x41 +1 x66 +1 x82 +1 x86 +1 x91 +1 x94 +1 x98 +1 x113 +1 x115 +1 x130
  +1 x133 +1 x142 +1 x155 +1 x166 +1 x168 +1 x181 >= +1
 c62: +1 x2 +1 x16 +1 x34 +1 x42 +1 x58 +1 x71 +1 x76 +1 x80 +1 x89 +1 x94 +1 x95 +1 x97 +1 x102 +1 x116
  +1 x133 +1 x158 +1 x168 +1 x198 +1 x205 +1 x219 >= +1
 c63: +1 x0 +1 x10 +1 x12 +1 x17 +1 x22 +1 x25 +1 x62 +1 x69 +1 x76 +1 x81 +1 x84 +1 x90 +1 x127 +1 x149
  +1 x154 +1 x170 +1 x186 +1 x191 +1 x199 +1 x206 +1 x224 >= +1
 c64: +1 x8 +1 x13 +1 x16 +1 x18 +1 x25 +1 x35 +1 x50 +1 x51 +1 x63 +1 x66 +1 x72 +1 x100 +1 x113 +1 x137
  +1 x138 +1 x150 +1 x153 +1 x154 +1 x156 +1 x158 +1 x196 +1 x208 >= +1
 c65: +1 x8 +1 x23 +1 x26 +1 x27 +1 x43 +1 x49 +1 x53 +1 x54 +1 x61 +1 x66 +1 x69 +1 x76 +1 x79 +1 x93
  +1 x124 +1 x137 +1 x142 +1 x147 +1 x152 +1 x161 +1 x170 +1 x176 +1 x177 +1 x199 +1 x205 +1 x220 >= +1
 c66: +1 x8 +1 x14 +1 x23 +1 x55 +1 x60 +1 x76 +1 x87 +1 x116 +1 x139 +1 x144 +1 x147 +1 x151 +1 x176
  +1 x181 +1 x185 +1 x214 +1 x217 >= +1
 c67: +1 x2 +1 x13 +1 x18 +1 x21 +1 x24 +1 x25 +1 x26 +1 x30 +1 x38 +1 x46 +1 x60 +1 x66 +1 x97 +1 x108
  +1 x111 +1 x121 +1 x158 +1 x173 +1 x181 +1 x182 +1 x186 +1 x197 +1 x207 +1 x211 +1 x214 >= +1
 c68: +1 x9 +1 x10 +1 x11 +1 x37 +1 x41 +1 x42 +1 x45 +1 x69 +1 x72 +1 x82 +1 x95 +1 x107 +1 x109 +1 x121
  +1 x122 +1 x134 +1 x147 +1 x162 +1 x196 +1 x214 >= +1
 c69: +1 x2 +1 x15 +1 x17 +1 x22 +1 x24 +1 x30 +1 x35 +1 x48 +1 x67 +1 x70 +1 x108 +1 x141 +1 x143 +1 x173
  +1 x182 +1 x201 +1 x207 >= +1
 c70: +1 x2 +1 x15 +1 x18 +1 x28 +1 x35 +1 x37 +1 x43 +1 x45 +1 x46 +1 x67 +1 x68 +1 x109 +1 x115 +1 x140
  +1 x143 +1 x164 +1 x165 +1 x171 +1 x185 +1 x190 +1 x200 >= +1
 c71: +1 x0 +1 x13 +1 x17 +1 x29 +1 x38 +1 x44 +1 x45 +1 x46 +1 x55 +1 x58 +1 x77 +1 x80 +1 x90 +1 x97
  +1 x102 +1 x107 +1 x114 +1 x115 +1 x123 +1 x172 +1 x182 +1 x202 +1 x204 +1 x210 +1 x216 +1 x222 +1 x223
  >= +1
 c72: +1 x3 +1 x22 +1 x24 +1 x27 +1 x31 +1 x37 +1 x64 +1 x68 +1 x83 +1 x100 +1 x101 +1 x103 +1 x116 +1 x121
  +1 x127 +1 x153 +1 x203 +1 x204 +1 x213 +1 x220 +1 x224 >= +1
 c73: +1 x1 +1 x16 +1 x26 +1 x51 +1 x55 +1 x61 +1 x71 +1 x85 +1 x94 +1 x105 +1 x158 +1 x195 +1 x196 +1 x203
  +1 x204 +1 x208 +1 x211 +1 x212 +1 x213 >= +1
 c74: +1 x4 +1 x29 +1 x32 +1 x46 +1 x54 +1 x55 +1 x61 +1 x82 +1 x87 +1 x105 +1 x114 +1 x123 +1 x137 +1 x159
  +1 x166 +1 x183 +1 x204 >= +1
 c75: +1 x4 +1 x11 +1 x26 +1 x29 +1 x34 +1 x65 +1 x66 +1 x85 +1 x89 +1 x97 +1 x102 +1 x106 +1 x108 +1 x117
  +1 x134 +1 x139 +1 x140 +1 x145 +1 x148 +1 x150 +1 x160 +1 x172 +1 x176 +1 x185 +1 x195 +1 x207 +1 x213
  +1 x214 >= +1
 c76: +1 x7 +1 x11 +1 x22 +1 x37 +1 x39 +1 x67 +1 x76 +1 x85 +1 x89 +1 x91 +1 x101 +1 x121 +1 x125 +1 x137
  +1 x153 +1 x160 +1 x163 +1 x166 +1 x175 +1 x176 +1 x196 +1 x210 +1 x217 >= +1
 c77: +1 x5 +1 x10 +1 x11 +1 x34 +1 x51 +1 x52 +1 x59 +1 x62 +1 x74 +1 x78 +1 x91 +1 x115 +1 x123 +1 x143
  +1 x146 +1 x159 +1 x181 >= +1
 c78: +1 x2 +1 x11 +1 x40 +1 x45 +1 x47 +1 x62 +1 x74 +1 x78 +1 x82 +1 x96 +1 x126 +1 x139 +1 x149 +1 x159
  +1 x172 +1 x197 +1 x205 +1 x219 >= +1
 c79: +1 x0 +1 x19 +1 x21 +1 x28 +1 x35 +1 x36 +1 x49 +1 x67 +1 x95 +1 x102 +1 x105 +1 x108 +1 x109 +1 x126
  +1 x136 +1 x145 +1 x158 +1 x160 +1 x164 +1 x174 +1 x184 +1 x194 +1 x199 +1 x213 +1 x218 >= +1
 c80: +1 x8 +1 x25 +1 x36 +1 x53 +1 x55 +1 x59 +1 x65 +1 x69 +1 x73 +1 x81 +1 x82 +1 x93 +1 x99 +1 x103
  +1 x111 +1 x123 +1 x134 +1 x152 +1 x154 +1 x160 +1 x170 +1 x205 +1 x207 >= +1
 c81: +1 x2 +1 x15 +1 x16 +1 x26 +1 x31 +1 x55 +1 x67 +1 x70 +1 x71 +1 x77 +1 x79 +1 x99 +1 x100 +1 x114
  +1 x119 +1 x131 +1 x133 +1 x140 +1 x143 +1 x149 +1 x155 +1 x168 +1 x169 +1 x171 +1 x177 +1 x179 +1 x181
  +1 x184 +1 x187 +1 x197 +1 x208 +1 x212 >= +1
 c82: +1 x9 +1 x10 +1 x13 +1 x29 +1 x35 +1 x46 +1 x58 +1 x61 +1 x73 +1 x77 +1 x79 +1 x81 +1 x87 +1 x100
  +1 x103 +1 x111 +1 x113 +1 x120 +1 x125 +1 x126 +1 x141 +1 x155 +1 x156 +1 x164 +1 x166 +1 x187 +1 x197
  +1 x215 >= +1
 c83: +1 x0 +1 x16 +1 x18 +1 x20 +1 x40 +1 x41 +1 x48 +1 x50 +1 x56 +1 x58 +1 x77 +1 x85 +1 x91 +1 x109
  +1 x124 +1 x140 +1 x175 +1 x178 +1 x180 +1 x190 +1 x214 +1 x217 >= +1
 c84: +1 x9 +1 x17 +1 x37 +1 x38 +1 x48 +1 x49 +1 x51 +1 x58 +1 x86 +1 x102 +1 x130 +1 x135 +1 x142 +1 x146
  +1 x148 +1 x159 +1 x182 +1 x187 +1 x190 +1 x195 +1 x206 +1 x213 +1 x217 +1 x219 >= +1
 c85: +1 x4 +1 x61 +1 x72 +1 x77 +1 x82 +1 x85 +1 x86 +1 x116 +1 x122 +1 x133 +1 x135 +1 x138 +1 x139
  +1 x140 +1 x149 +1 x164 +1 x178 +1 x179 +1 x198 +1 x210 +1 x218 +1 x224 >= +1
 c86: +1 x6 +1 x37 +1 x63 +1 x73 +1 x90 +1 x107 +1 x109 +1 x130 +1 x133 +1 x135 +1 x136 +1 x151 +1 x168
  +1 x178 +1 x179 +1 x194 +1 x215 >= +1
 c87: +1 x9 +1 x16 +1 x24 +1 x25 +1 x28 +1 x52 +1 x56 +1 x60 +1 x70 +1 x75 +1 x76 +1 x89 +1 x91 +1 x96
  +1 x100 +1 x104 +1 x107 +1 x112 +1 x124 +1 x128 +1 x136 +1 x137 +1 x152 +1 x179 +1 x188 +1 x205 >= +1
 c88: +1 x9 +1 x10 +1 x14 +1 x24 +1 x35 +1 x57 +1 x61 +1 x72 +1 x79 +1 x84 +1 x96 +1 x104 +1 x140 +1 x163
  +1 x166 +1 x169 +1 x175 +1 x186 +1 x220 +1 x222 >= +1
 c89: +1 x8 +1 x22 +1 x25 +1 x42 +1 x57 +1 x65 +1 x90 +1 x92 +1 x140 +1 x158 +1 x173 +1 x183 +1 x184 +1 x201
  +1 x210 +1 x223 >= +1
 c90: +1 x6 +1 x19 +1 x33 +1 x42 +1 x44 +1 x48 +1 x56 +1 x69 +1 x75 +1 x83 +1 x88 +1 x99 +1 x101 +1 x106
  +1 x121 +1 x151 +1 x158 +1 x179 +1 x185 +1 x190 +1 x197 +1 x206 +1 x214 >= +1
 c91: +1 x9 +1 x11 +1 x16 +1 x47 +1 x81 +1 x99 +1 x108 +1 x112 +1 x120 +1 x128 +1 x131 +1 x134 +1 x150
  +1 x151 +1 x188 +1 x208 +1 x211 >= +1
 c92: +1 x2 +1 x10 +1 x23 +1 x27 +1 x28 +1 x32 +1 x35 +1 x43 +1 x44 +1 x58 +1 x61 +1 x66 +1 x101 +1 x105
  +1 x113 +1 x118 +1 x127 +1 x131 +1 x133 +1 x134 +1 x141 +1 x160 +1 x222 +1 x223 +1 x224 >= +1
 c93: +1 x5 +1 x17 +1 x18 +1 x24 +1 x25 +1 x67 +1 x68 +1 x69 +1 x82 +1 x114 +1 x151 +1 x156 +1 x161 +1 x162
  +1 x170 +1 x180 >= +1
 c94: +1 x8 +1 x19 +1 x23 +1 x37 +1 x42 +1 x58 +1 x60 +1 x69 +1 x71 +1 x91 +1 x93 +1 x118 +1 x120 +1 x123
  +1 x134 +1 x154 +1 x160 +1 x168 +1 x171 +1 x196 +1 x199 +1 x202 +1 x211 >= +1
 c95: +1 x6 +1 x24 +1 x50 +1 x71 +1 x82 +1 x92 +1 x98 +1 x140 +1 x150 +1 x156 +1 x166 +1 x169 +1 x184
  +1 x186 +1 x192 +1 x199 +1 x208 +1 x216 >= +1
 c96: +1 x4 +1 x21 +1 x34 +1 x58 +1 x61 +1 x64 +1 x70 +1 x81 +1 x87 +1 x96 +1 x101 +1 x105 +1 x115 +1 x129
  +1 x135 +1 x138 +1 x181 +1 x194 +1 x197 >= +1
 c97: +1 x0 +1 x19 +1 x21 +1 x34 +1 x38 +1 x65 +1 x105 +1 x115 +1 x119 +1 x146 +1 x155 +1 x160 +1 x163
  +1 x187 +1 x199 +1 x201 +1 x222 >= +1
 c98: +1 x3 +1 x32 +1 x34 +1 x81 +1 x86 +1 x87 +1 x98 +1 x133 +1 x134 +1 x137 +1 x181 +1 x200 +1 x201
  +1 x208 +1 x216 +1 x220 >= +1
 c99: +1 x7 +1 x16 +1 x19 +1 x42 +1 x51 +1 x53 +1 x56 +1 x68 +1 x69 +1 x95 +1 x101 +1 x107 +1 x109 +1 x113
  +1 x118 +1 x122 +1 x126 +1 x129 +1 x134 +1 x147 +1 x161 +1 x170 +1 x174 +1 x195 +1 x201 +1 x202 +1 x207
  +1 x212 >= +1
 c100: +1 x9 +1 x12 +1 x32 +1 x37 +1 x38 +1 x56 +1 x60 +1 x75 +1 x86 +1 x89 +1 x96 +1 x123 +1 x126 +1 x132
  +1 x150 +1 x155 +1 x176 +1 x193 +1 x194 +1 x199 +1 x201 +1 x202 +1 x220 >= +1
 c101: +1 x6 +1 x28 +1 x30 +1 x47 +1 x62 +1 x66 +1 x82 +1 x93 +1 x104 +1 x136 +1 x143 +1 x161 +1 x175
  +1 x183 +1 x185 +1 x193 +1 x197 +1 x211 +1 x212 +1 x213 +1 x216 >= +1
 c102: +1 x9 +1 x10 +1 x16 +1 x20 +1 x25 +1 x28 +1 x44 +1 x52 +1 x66 +1 x72 +1 x74 +1 x108 +1 x122 +1 x153
  +1 x158 +1 x161 +1 x174 +1 x179 +1 x207 +1 x212 >= +1
 c103: +1 x7 +1 x10 +1 x44 +1 x46 +1 x53 +1 x54 +1 x58 +1 x78 +1 x82 +1 x83 +1 x125 +1 x128 +1 x130 +1 x138
  +1 x158 +1 x168 +1 x176 +1 x178 +1 x187 +1 x194 +1 x206 >= +1
 c104: +1 x6 +1 x20 +1 x29 +1 x37 +1 x50 +1 x71 +1 x76 +1 x83 +1 x85 +1 x103 +1 x104 +1 x105 +1 x109 +1 x113
  +1 x123 +1 x129 +1 x155 +1 x189 +1 x190 +1 x203 +1 x222 >= +1
 c105: +1 x7 +1 x12 +1 x31 +1 x38 +1 x39 +1 x53 +1 x63 +1 x67 +1 x69 +1 x86 +1 x94 +1 x95 +1 x98 +1 x128
  +1 x135 +1 x136 +1 x145 +1 x150 +1 x167 +1 x173 +1 x175 +1 x180 +1 x211 +1 x214 +1 x219 >= +1
 c106: +1 x0 +1 x12 +1 x23 +1 x37 +1 x40 +1 x44 +1 x50 +1 x53 +1 x56 +1 x64 +1 x80 +1 x118 +1 x123 +1 x127
  +1 x133 +1 x136 +1 x167 +1 x183 +1 x185 +1 x191 +1 x192 +1 x193 +1 x200 +1 x218 +1 x222 >= +1
 c107: +1 x3 +1 x12 +1 x23 +1 x28 +1 x55 +1 x57 +1 x71 +1 x73 +1 x76 +1 x92 +1 x93 +1 x97 +1 x101 +1 x108
  +1 x112 +1 x114 +1 x117 +1 x122 +1 x124 +1 x164 +1 x184 +1 x194 +1 x198 +1 x201 +1 x207 +1 x211 >= +1
 c108: +1 x5 +1 x9 +1 x10 +1 x13 +1 x18 +1 x26 +1 x28 +1 x33 +1 x35 +1 x41 +1 x53 +1 x87 +1 x92 +1 x100
  +1 x101 +1 x143 +1 x155 +1 x158 +1 x170 +1 x176 +1 x219 >= +1
 c109: +1 x7 +1 x14 +1 x16 +1 x17 +1 x22 +1 x28 +1 x38 +1 x51 +1 x52 +1 x53 +1 x54 +1 x58 +1 x63 +1 x64
  +1 x66 +1 x84 +1 x125 +1 x135 +1 x136 +1 x147 +1 x159 +1 x171 +1 x183 +1 x185 +1 x189 +1 x192 +1 x211
  >= +1
 c110: +1 x5 +1 x14 +1 x21 +1 x34 +1 x44 +1 x46 +1 x52 +1 x65 +1 x73 +1 x79 +1 x80 +1 x86 +1 x106 +1 x119
  +1 x129 +1 x146 +1 x150 +1 x153 +1 x155 +1 x160 +1 x163 +1 x178 +1 x182 +1 x194 +1 x208 >= +1
 c111: +1 x0 +1 x45 +1 x49 +1 x64 +1 x77 +1 x78 +1 x79 +1 x81 +1 x85 +1 x88 +1 x106 +1 x165 +1 x198 +1 x202
  +1 x219 >= +1
 c112: +1 x8 +1 x11 +1 x12 +1 x16 +1 x22 +1 x29 +1 x30 +1 x51 +1 x65 +1 x131 +1 x150 +1 x152 +1 x153 +1 x167
  +1 x193 >= +1
 c113: +1 x3 +1 x44 +1 x46 +1 x49 +1 x67 +1 x73 +1 x74 +1 x94 +1 x102 +1 x109 +1 x121 +1 x125 +1 x148
  +1 x150 +1 x177 +1 x201 >= +1
 c114: +1 x1 +1 x26 +1 x35 +1 x36 +1 x38 +1 x43 +1 x50 +1 x52 +1 x79 +1 x86 +1 x102 +1 x119 +1 x121 +1 x140
  +1 x152 +1 x162 +1 x169 +1 x174 +1 x176 +1 x185 +1 x220 >= +1
 c115: +1 x5 +1 x19 +1 x32 +1 x36 +1 x37 +1 x38 +1 x47 +1 x62 +1 x73 +1 x95 +1 x112 +1 x115 +1 x136 +1 x142
  +1 x158 +1 x160 +1 x182 +1 x194 +1 x200 >= +1
 c116: +1 x2 +1 x12 +1 x13 +1 x17 +1 x32 +1 x36 +1 x43 +1 x48 +1 x50 +1 x65 +1 x100 +1 x103 +1 x110 +1 x116
  +1 x133 +1 x156 +1 x159 +1 x164 +1 x170 +1 x197 +1 x220 >= +1
 c117: +1 x0 +1 x11 +1 x17 +1 x22 +1 x33 +1 x56 +1 x69 +1 x91 +1 x97 +1 x110 +1 x112 +1 x118 +1 x142 +1 x145
  +1 x150 +1 x158 +1 x185 +1 x192 +1 x208 >= +1
 c118: +1 x1 +1 x10 +1 x16 +1 x34 +1 x50 +1 x52 +1 x58 +1 x67 +1 x85 +1 x94 +1 x96 +1 x106 +1 x115 +1 x161
  +1 x169 +1 x178 +1 x194 +1 x217 +1 x218 >= +1
 c119: +1 x4 +1 x20 +1 x67 +1 x81 +1 x86 +1 x104 +1 x120 +1 x130 +1 x133 +1 x136 +1 x139 +1 x146 +1 x153
  +1 x167 +1 x168 +1 x176 +1 x179 +1 x181 +1 x186 +1 x189 +1 x190 +1 x209 +1 x211 >= +1
 c120: +1 x4 +1 x11 +1 x39 +1 x40 +1 x44 +1 x50 +1 x60 +1 x70 +1 x75 +1 x79 +1 x88 +1 x95 +1 x99 +1 x109
  +1 x113 +1 x116 +1 x119 +1 x124 +1 x137 +1 x149 +1 x158 +1 x164 +1 x167 +1 x173 +1 x193 +1 x194 +1 x200
  +1 x206 >= +1
 c121: +1 x4 +1 x12 +1 x24 +1 x30 +1 x35 +1 x40 +1 x41 +1 x51 +1 x59 +1 x65 +1 x66 +1 x90 +1 x117 +1 x118
  +1 x125 +1 x130 +1 x136 +1 x146 +1 x151 +1 x171 +1 x173 +1 x180 +1 x182 +1 x185 +1 x198 +1 x202 >= +1
 c122: +1 x4 +1 x19 +1 x25 +1 x36 +1 x43 +1 x53 +1 x67 +1 x101 +1 x125 +1 x149 +1 x150 +1 x163 +1 x174
  +1 x180 +1 x188 +1 x202 >= +1
 c123: +1 x0 +1 x14 +1 x18 +1 x27 +1 x34 +1 x35 +1 x53 +1 x64 +1 x89 +1 x90 +1 x92 +1 x111 +1 x126 +1 x133
  +1 x135 +1 x148 +1 x160 +1 x166 +1 x172 +1 x202 +1 x203 +1 x206 +1 x211 +1 x215 +1 x218 +1 x221 +1 x223
  >= +1
 c124: +1 x4 +1 x33 +1 x38 +1 x40 +1 x43 +1 x45 +1 x65 +1 x72 +1 x78 +1 x88 +1 x89 +1 x93 +1 x96 +1 x98
  +1 x122 +1 x123 +1 x129 +1 x139 +1 x147 +1 x165 +1 x172 +1 x178 +1 x179 >= +1
 c125: +1 x6 +1 x20 +1 x22 +1 x36 +1 x50 +1 x51 +1 x54 +1 x57 +1 x81 +1 x94 +1 x95 +1 x104 +1 x113 +1 x118
  +1 x131 +1 x135 +1 x140 +1 x142 +1 x143 +1 x146 +1 x150 +1 x152 +1 x167 +1 x172 +1 x190 +1 x192 +1 x198
  +1 x205 +1 x217 >= +1
 c126: +1 x5 +1 x10 +1 x19 +1 x23 +1 x25 +1 x27 +1 x34 +1 x36 +1 x37 +1 x42 +1 x60 +1 x66 +1 x68 +1 x86
  +1 x88 +1 x108 +1 x109 +1 x133 +1 x135 +1 x157 +1 x161 +1 x166 +1 x171 +1 x174 +1 x179 +1 x180 +1 x193
  +1 x201 +1 x212 +1 x214 +1 x221 +1 x223 >= +1
 c127: +1 x2 +1 x16 +1 x18 +1 x23 +1 x41 +1 x59 +1 x68 +1 x71 +1 x110 +1 x125 +1 x143 +1 x170 +1 x171
  +1 x175 +1 x179 +1 x185 +1 x196 +1 x200 +1 x202 +1 x209 >= +1
 c128: +1 x7 +1 x14 +1 x15 +1 x16 +1 x68 +1 x73 +1 x83 +1 x87 +1 x99 +1 x108 +1 x124 +1 x144 +1 x145 +1 x150
  +1 x159 +1 x164 +1 x165 +1 x167 +1 x168 +1 x171 +1 x183 +1 x185 +1 x202 +1 x206 +1 x214 +1 x221 >= +1
 c129: +1 x0 +1 x30 +1 x35 +1 x62 +1 x77 +1 x81 +1 x97 +1 x105 +1 x107 +1 x108 +1 x122 +1 x127 +1 x142
  +1 x144 +1 x145 +1 x146 +1 x148 +1 x155 +1 x178 +1 x182 +1 x183 +1 x193 +1 x214 >= +1
 c130: +1 x9 +1 x30 +1 x31 +1 x56 +1 x86 +1 x96 +1 x99 +1 x114 +1 x139 +1 x141 +1 x149 +1 x175 +1 x184
  +1 x188 +1 x201 +1 x203 +1 x206 +1 x211 +1 x224 >= +1
 c131: +1 x6 +1 x24 +1 x37 +1 x53 +1 x56 +1 x58 +1 x61 +1 x64 +1 x71 +1 x85 +1 x87 +1 x88 +1 x92 +1 x109
  +1 x110 +1 x123 +1 x134 +1 x137 +1 x138 +1 x153 +1 x166 +1 x169 +1 x170 +1 x177 +1 x190 +1 x196 +1 x199
  +1 x205 +1 x208 >= +1
 c132: +1 x5 +1 x35 +1 x44 +1 x45 +1 x56 +1 x57 +1 x68 +1 x83 +1 x87 +1 x107 +1 x117 +1 x120 +1 x131 +1 x141
  +1 x147 +1 x148 +1 x153 +1 x173 +1 x181 +1 x188 +1 x214 +1 x217 >= +1
 c133: +1 x3 +1 x29 +1 x32 +1 x45 +1 x52 +1 x67 +1 x86 +1 x90 +1 x95 +1 x99 +1 x115 +1 x131 +1 x133 +1 x141
  +1 x164 +1 x166 +1 x181 +1 x186 +1 x188 +1 x199 +1 x204 +1 x207 +1 x217 >= +1
 c134: +1 x6 +1 x17 +1 x26 +1 x32 +1 x38 +1 x39 +1 x48 +1 x49 +1 x59 +1 x60 +1 x72 +1 x90 +1 x116 +1 x139
  +1 x191 +1 x201 +1 x208 +1 x210 >= +1
 c135: +1 x3 +1 x10 +1 x47 +1 x56 +1 x60 +1 x86 +1 x87 +1 x90 +1 x123 +1 x158 +1 x165 +1 x175 +1 x177
  +1 x195 +1 x196 +1 x198 +1 x201 +1 x210 +1 x218 >= +1
 c136: +1 x8 +1 x59 +1 x62 +1 x73 +1 x86 +1 x92 +1 x105 +1 x117 +1 x120 +1 x134 +1 x138 +1 x142 +1 x145
  +1 x156 +1 x160 +1 x179 +1 x193 +1 x194 +1 x213 >= +1
 c137: +1 x2 +1 x18 +1 x24 +1 x25 +1 x35 +1 x47 +1 x54 +1 x65 +1 x80 +1 x98 +1 x107 +1 x108 +1 x113 +1 x121
  +1 x124 +1 x134 +1 x135 +1 x154 +1 x161 +1 x167 +1 x175 +1 x180 +1 x193 +1 x219 +1 x221 >= +1
 c138: +1 x2 +1 x31 +1 x56 +1 x76 +1 x85 +1 x139 +1 x140 +1 x145 +1 x147 +1 x178 +1 x184 +1 x213 >= +1
 c139: +1 x6 +1 x34 +1 x65 +1 x74 +1 x96 +1 x103 +1 x105 +1 x107 +1 x121 +1 x122 +1 x128 +1 x135 +1 x138
  +1 x140 +1 x143 +1 x149 +1 x150 +1 x186 +1 x189 +1 x193 +1 x212 >= +1
 c140: +1 x4 +1 x12 +1 x44 +1 x57 +1 x66 +1 x92 +1 x118 +1 x121 +1 x122 +1 x124 +1 x127 +1 x130 +1 x131
  +1 x135 +1 x141 +1 x145 +1 x158 +1 x164 +1 x165 +1 x167 +1 x168 +1 x186 +1 x193 >= +1
 c141: +1 x7 +1 x11 +1 x17 +1 x30 +1 x35 +1 x38 +1 x53 +1 x55 +1 x62 +1 x79 +1 x82 +1 x97 +1 x107 +1 x123
  +1 x127 +1 x131 +1 x132 +1 x148 +1 x164 +1 x168 +1 x188 +1 x200 +1 x210 +1 x212 >= +1
 c142: +1 x3 +1 x35 +1 x47 +1 x50 +1 x55 +1 x59 +1 x62 +1 x72 +1 x120 +1 x121 +1 x157 +1 x164 +1 x166
  +1 x184 +1 x188 +1 x198 +1 x210 >= +1
 c143: +1 x2 +1 x36 +1 x37 +1 x45 +1 x47 +1 x51 +1 x60 +1 x61 +1 x68 +1 x74 +1 x86 +1 x93 +1 x100 +1 x114
  +1 x116 +1 x117 +1 x119 +1 x125 +1 x132 +1 x136 +1 x140 +1 x154 +1 x155 +1 x156 +1 x160 +1 x161 +1 x170
  +1 x174 +1 x180 +1 x181 +1 x188 +1 x189 +1 x198 +1 x204 +1 x205 +1 x218 >= +1
 c144: +1 x0 +1 x15 +1 x82 +1 x87 +1 x89 +1 x117 +1 x119 +1 x123 +1 x132 +1 x133 +1 x140 +1 x147 +1 x155
  +1 x162 +1 x165 +1 x181 +1 x183 +1 x186 +1 x188 +1 x190 +1 x192 +1 x194 +1 x201 +1 x202 +1 x213 +1 x217
  >= +1
 c145: +1 x4 +1 x14 +1 x37 +1 x80 +1 x98 +1 x99 +1 x131 +1 x135 +1 x142 +1 x144 +1 x150 +1 x176 +1 x202
  +1 x213 +1 x217 +1 x221 >= +1
 c146: +1 x8 +1 x11 +1 x35 +1 x37 +1 x40 +1 x44 +1 x48 +1 x72 +1 x82 +1 x95 +1 x100 +1 x131 +1 x133 +1 x187
  +1 x211 +1 x213 >= +1
 c147: +1 x5 +1 x13 +1 x16 +1 x21 +1 x24 +1 x29 +1 x36 +1 x40 +1 x57 +1 x77 +1 x86 +1 x87 +1 x89 +1 x91
  +1 x92 +1 x95 +1 x100 +1 x116 +1 x120 +1 x122 +1 x125 +1 x133 +1 x147 +1 x155 +1 x173 +1 x196 +1 x201
  +1 x218 +1 x219 >= +1
 c148: +1 x6 +1 x22 +1 x23 +1 x30 +1 x42 +1 x52 +1 x55 +1 x72 +1 x77 +1 x78 +1 x97 +1 x99 +1 x122 +1 x132
  +1 x139 +1 x155 +1 x162 +1 x175 +1 x179 >= +1
 c149: +1 x8 +1 x18 +1 x19 +1 x25 +1 x29 +1 x49 +1 x67 +1 x76 +1 x86 +1 x109 +1 x113 +1 x116 +1 x121 +1 x126
  +1 x146 +1 x148 +1 x170 +1 x183 +1 x188 +1 x210 +1 x216 +1 x221 >= +1
Bounds
 0 <= x0 <= 1
 0 <= x1 <= 1
 0 <= x2 <= 1
 0 <= x3 <= 1
 0 <= x4 <= 1
 0 <= x5 <= 1
 0 <= x6 <= 1
 0 <= x7 <= 1
 0 <= x8 <= 1
 0 <= x9 <= 1
 0 <= x10 <= 1
 0 <= x11 <= 1
 0 <= x12 <= 1
 0 <= x13 <= 1
 0 <= x14 <= 1
 0 <= x15 <= 1
 0 <= x16 <= 1
 0 <= x17 <= 1
 0 <= x18 <= 1
 0 <= x19 <= 1
 0 <= x20 <= 1
 0 <= x21 <= 1
 0 <= x22 <= 1
 0 <= x23 <= 1
 0 <= x24 <= 1
 0 <= x25 <= 1
 0 <= x26 <= 1
 0 <= x27 <= 1
 0 <= x28 <= 1
 0 <= x29 <= 1
 0 <= x30 <= 1
 0 <= x31 <= 1
 0 <= x32 <= 1
 0 <= x33 <= 1
 0 <= x34 <= 1
 0 <= x35 <= 1
 0 <= x36 <= 1
 0 <= x37 <= 1
 0 <= x38 <= 1
 0 <= x39 <= 1
 0 <= x40 <= 1
 0 <= x41 <= 1
 0 <= x42 <= 1
 0 <= x43 <= 1
 0 <= x44 <= 1
 0 <= x45 <= 1
 0 <= x46 <= 1
 0 <= x47 <= 1
 0 <= x48 <= 1
 0 <= x49 <= 1
 0 <= x50 <= 1
 0 <= x51 <= 1
 0 <= x52 <= 1
 0 <= x53 <= 1
 0 <= x54 <= 1
 0 <= x55 <= 1
 0 <= x56 <= 1
 0 <= x57 <= 1
 0 <= x58 <= 1
 0 <= x59 <= 1
 0 <= x60 <= 1
 0 <= x61 <= 1
 0 <= x62 <= 1
 0 <= x63 <= 1
 0 <= x64 <= 1
 0 <= x65 <= 1
 0 <= x66 <= 1
 0 <= x67 <= 1
 0 <= x68 <= 1
 0 <= x69 <= 1
 0 <= x70 <= 1
 0 <= x71 <= 1
 0 <= x72 <= 1
 0 <= x73 <= 1
 0 <= x74 <= 1
 0 <= x75 <= 1
 0 <= x76 <= 1
 0 <= x77 <= 1
 0 <= x78 <= 1
 0 <= x79 <= 1
 0 <= x80 <= 1
 0 <= x81 <= 1
 0 <= x82 <= 1
 0 <= x83 <= 1
 0 <= x84 <= 1
 0 <= x85 <= 1
 0 <= x86 <= 1
 0 <= x87 <= 1
 0 <= x88 <= 1
 0 <= x89 <= 1
 0 <= x90 <= 1
 0 <= x91 <= 1
 0 <= x92 <= 1
 0 <= x93 <= 1
 0 <= x94 <= 1
 0 <= x95 <= 1
 0 <= x96 <= 1
 0 <= x97 <= 1
 0 <= x98 <= 1
 0 <= x99 <= 1
 0 <= x100 <= 1
 0 <= x101 <= 1
 0 <= x102 <= 1
 0 <= x103 <= 1
 0 <= x104 <= 1
 0 <= x105 <= 1
 0 <= x106 <= 1
 0 <= x107 <= 1
 0 <= x108 <= 1
 0 <= x109 <= 1
 0 <= x110 <= 1
 0 <= x111 <= 1
 0 <= x112 <= 1
 0 <= x113 <= 1
 0 <= x114 <= 1
 0 <= x115 <= 1
 0 <= x116 <= 1
 0 <= x117 <= 1
 0 <= x118 <= 1
 0 <= x119 <= 1
 0 <= x120 <= 1
 0 <= x121 <= 1
 0 <= x122 <= 1
 0 <= x123 <= 1
 0 <= x124 <= 1
 0 <= x125 <= 1
 0 <= x126 <= 1
 0 <= x127 <= 1
 0 <= x128 <= 1
 0 <= x129 <= 1
 0 <= x130 <= 1
 0 <= x131 <= 1
 0 <= x132 <= 1
 0 <= x133 <= 1
 0 <= x134 <= 1
 0 <= x135 <= 1
 0 <= x136 <= 1
 0 <= x137 <= 1
 0 <= x138 <= 1
 0 <= x139 <= 1
 0 <= x140 <= 1
 0 <= x141 <= 1
 0 <= x142 <= 1
 0 <= x143 <= 1
 0 <= x144 <= 1
 0 <= x145 <= 1
 0 <= x146 <= 1
 0 <= x147 <= 1
 0 <= x148 <= 1
 0 <= x149 <= 1
 0 <= x150 <= 1
 0 <= x151 <= 1
 0 <= x152 <= 1
 0 <= x153 <= 1
 0 <= x154 <= 1
 0 <= x155 <= 1
 0 <= x156 <= 1
 0 <= x157 <= 1
 0 <= x158 <= 1
 0 <= x159 <= 1
 0 <= x160 <= 1
 0 <= x161 <= 1
 0 <= x162 <= 1
 0 <= x163 <= 1
 0 <= x164 <= 1
 0 <= x165 <= 1
 0 <= x166 <= 1
 0 <= x167 <= 1
 0 <= x168 <= 1
 0 <= x169 <= 1
 0 <= x170 <= 1
 0 <= x171 <= 1
 0 <= x172 <= 1
 0 <= x173 <= 1
 0 <= x174 <= 1
 0 <= x175 <= 1
 0 <= x176 <= 1
 0 <= x177 <= 1
 0 <= x178 <= 1
 0 <= x179 <= 1
 0 <= x180 <= 1
 0 <= x181 <= 1
 0 <= x182 <= 1
 0 <= x183 <= 1
 0 <= x184 <= 1
 0 <= x185 <= 1
 0 <= x186 <= 1
 0 <= x187 <= 1
 0 <= x188 <= 1
 0 <= x189 <= 1
 0 <= x190 <= 1
 0 <= x191 <= 1
 0 <= x192 <= 1
 0 <= x193 <= 1
 0 <= x194 <= 1
 0 <= x195 <= 1
 0 <= x196 <= 1
 0 <= x197 <= 1
 0 <= x198 <= 1
 0 <= x199 <= 1
 0 <= x200 <= 1
 0 <= x201 <= 1
 0 <= x202 <= 1
 0 <= x203 <= 1
 0 <= x204 <= 1
 0 <= x205 <= 1
 0 <= x206 <= 1
 0 <= x207 <= 1
 0 <= x208 <= 1
 0 <= x209 <= 1
 0 <= x210 <= 1
 0 <= x211 <= 1
 0 <= x212 <= 1
 0 <= x213 <= 1
 0 <= x214 <= 1
 0 <= x215 <= 1
 0 <= x216 <= 1
 0 <= x217 <= 1
 0 <= x218 <= 1
 0 <= x219 <= 1
 0 <= x220 <= 1
 0 <= x221 <= 1
 0 <= x222 <= 1
 0 <= x223 <= 1
 0 <= x224 <= 1
Binaries
 x0 x1 x2 x3 x4 x5 x6 x7 x8 x9 x10 x11 x12 x13 x14 x15 x16 x17 x18 x19 x20 x21 x22 x23 x24 x25 x26 x27
 x28 x29 x30 x31 x32 x33 x34 x35 x36 x37 x38 x39 x40 x41 x42 x43 x44 x45 x46 x47 x48 x49 x50 x51 x52 x53
 x54 x55 x56 x57 x58 x59 x60 x61 x62 x63 x64 x65 x66 x67 x68 x69 x70 x71 x72 x73 x74 x75 x76 x77 x78 x79
 x80 x81 x82 x83 x84 x85 x86 x87 x88 x89 x90 x91 x92 x93 x94 x95 x96 x97 x98 x99 x100 x101 x102 x103 x104
 x105 x106 x107 x108 x109 x110 x111 x112 x113 x114 x115 x116 x117 x118 x119 x120 x121 x122 x123 x124 x125
 x126 x127 x128 x129 x130 x131 x132 x133 x134 x135 x136 x137 x138 x139 x140 x141 x142 x143 x144 x145 x146
 x147 x148 x149 x150 x151 x152 x153 x154 x155 x156 x157 x158 x159 x160 x161 x162 x163 x164 x165 x166 x167
 x168 x169 x170 x171 x172 x173 x174 x175 x176 x177 x178 x179 x180 x181 x182 x183 x184 x185 x186 x187 x188
 x189 x190 x191 x192 x193 x194 x195 x196 x197 x198 x199 x200 x201 x202 x203 x204 x205 x206 x207 x208 x209
 x210 x211 x212 x213 x214 x215 x216 x217 x218 x219 x220 x221 x222 x223 x224
End
